(set-option :produce-models true)
(set-logic QF_UF)
(declare-fun p6() Bool)
(declare-fun p50() Bool)
(declare-fun p33() Bool)
(declare-fun p3() Bool)
(declare-fun p36() Bool)
(declare-fun p45() Bool)
(declare-fun p29() Bool)
(declare-fun p14() Bool)
(declare-fun p1() Bool)
(declare-fun p44() Bool)
(declare-fun p20() Bool)
(declare-fun p18() Bool)
(declare-fun p7() Bool)
(declare-fun p15() Bool)
(declare-fun p16() Bool)
(declare-fun p26() Bool)
(declare-fun p12() Bool)
(declare-fun p22() Bool)
(declare-fun p19() Bool)
(declare-fun p51() Bool)
(declare-fun p52() Bool)
(declare-fun p9() Bool)
(declare-fun p11() Bool)
(declare-fun p4() Bool)
(declare-fun p21() Bool)
(declare-fun p38() Bool)
(declare-fun p5() Bool)
(declare-fun p30() Bool)
(declare-fun p27() Bool)
(declare-fun p24() Bool)
(declare-fun p54() Bool)
(declare-fun p41() Bool)
(declare-fun p31() Bool)
(declare-fun p2() Bool)
(declare-fun p58() Bool)
(declare-fun p53() Bool)
(declare-fun p17() Bool)
(declare-fun p35() Bool)
(declare-fun p39() Bool)
(declare-fun p48() Bool)
(declare-fun p42() Bool)
(declare-fun p23() Bool)
(declare-fun p40() Bool)
(declare-fun p46() Bool)
(declare-fun p28() Bool)
(declare-fun p55() Bool)
(declare-fun p47() Bool)
(declare-fun p34() Bool)
(declare-fun p37() Bool)
(declare-fun p32() Bool)
(declare-fun p8() Bool)
(declare-fun p13() Bool)
(declare-fun p49() Bool)
(declare-fun p57() Bool)
(declare-fun p59() Bool)
(declare-fun p0() Bool)
(declare-fun p10() Bool)
(declare-fun p25() Bool)
(declare-fun p56() Bool)
(declare-fun p43() Bool)
(assert
(and (or (not p6) (not p50) p33) (or (not p3) p36 (not p45)) (or (not p29) p14 p1) (or (not p44) p29 p20) (or (not p1) p18 p7) (or (not p29) (not p15) p16) (or p26 (not p12) p22) (or (not p19) p51 p52) (or (not p9) p11 p4) (or (not p11) (not p21) p38) (or (not p11) (not p50) p29) (or (not p5) p30 (not p30)) (or (not p4) p27 (not p24)) (or p54 (not p41) p19) (or (not p15) p45 (not p54)) (or (not p31) (not p2) (not p58)) (or (not p7) (not p1) p52) (or p53 (not p17) p35) (or p31 (not p3) (not p39)) (or (not p48) p42 p44) (or (not p23) p40 p33) (or p46 p38 (not p21)) (or (not p44) (not p28) (not p38)) (or p15 p23 p55) (or p23 (not p14) (not p39)) (or p36 p12 (not p54)) (or p42 p50 p47) (or (not p11) (not p34) (not p35)) (or p4 (not p30) p55) (or p37 (not p3) (not p32)) (or p12 p8 (not p50)) (or p3 p19 p13) (or (not p41) (not p49) (not p4)) (or (not p50) (not p24) (not p26)) (or (not p11) p1 (not p57)) (or p33 (not p4) p30) (or (not p6) (not p11) p23) (or p58 p16 p39) (or (not p36) p27 p29) (or p54 (not p48) (not p41)) (or (not p4) (not p17) (not p49)) (or p33 p38 p22) (or p6 (not p59) (not p51)) (or p16 p57 (not p21)) (or p22 p0 (not p53)) (or (not p36) (not p21) (not p33)) (or p53 (not p40) p32) (or (not p51) p29 (not p3)) (or (not p59) (not p54) p28) (or (not p26) (not p33) p34) (or (not p58) p12 (not p50)) (or p23 p41 (not p34)) (or p36 (not p12) (not p17)) (or (not p54) (not p15) (not p32)) (or p33 (not p44) p13) (or (not p20) p49 p37) (or (not p57) (not p48) p26) (or (not p53) (not p4) p47) (or p49 p10 (not p49)) (or (not p4) (not p47) (not p58)) (or (not p0) (not p24) p13) (or p3 (not p39) p38) (or p6 (not p58) (not p45)) (or (not p13) p59 p25) (or (not p58) p56 (not p51)) (or (not p9) p47 (not p34)) (or (not p31) p2 (not p2)) (or (not p42) p44 p8) (or (not p22) (not p41) (not p5)) (or p49 p23 p20) (or (not p11) (not p56) p56) (or p16 (not p25) p42) (or (not p28) p27 (not p5)) (or (not p22) (not p13) (not p12)) (or p44 p38 p42) (or (not p38) p28 p59) (or p55 (not p6) p23) (or (not p8) p51 (not p13)) (or p43 (not p16) p0) (or (not p26) p36 (not p14)) (or p11 p28 p49) (or p9 p17 p50) (or (not p27) p22 (not p56)) (or (not p8) (not p50) (not p23)) (or p34 p31 (not p0)) (or (not p3) p8 p51) (or (not p4) (not p28) p14) (or p6 p1 p52) (or (not p37) p59 p42) (or (not p29) p16 (not p49)) (or p20 (not p11) (not p31)) (or p46 p58 (not p55)) (or p56 (not p3) (not p30)) (or (not p32) (not p45) p3) (or (not p50) (not p2) p53) (or p23 (not p40) p38) (or p16 (not p22) p54) (or p58 (not p28) (not p22)) (or (not p11) (not p23) p9) (or p26 p34 p34) (or p5 p12 p24) (or p26 (not p0) p32) (or p42 p33 (not p9)) (or p21 p59 p15) (or p32 (not p10) (not p31)) (or (not p8) (not p9) (not p45)) (or (not p3) p52 (not p54)) (or p55 p23 p17) (or (not p21) p51 p2) (or (not p46) p17 (not p56)) (or (not p36) p55 (not p18)) (or p44 (not p30) p52) (or p10 p17 p44) (or p24 p46 (not p52)) (or (not p45) (not p45) p7) (or (not p3) (not p14) p17) (or (not p17) (not p49) (not p55)) (or (not p12) p48 (not p27)) (or p54 (not p26) (not p23)) (or (not p21) p27 p53) (or p52 (not p59) p51) (or p5 (not p55) p0) (or (not p51) p17 (not p59)) (or (not p17) (not p20) p48) (or p36 p17 (not p37)) (or p53 (not p6) p45) (or p16 (not p12) p0) (or (not p58) (not p10) (not p32)) (or (not p35) p59 p45) (or p11 (not p19) (not p49)) (or p6 p12 p26) (or p31 p52 (not p24)) (or p23 p44 (not p33)) (or p27 (not p39) p3) (or (not p14) p3 (not p34)) (or (not p57) p53 p15) (or (not p32) (not p45) (not p9)) (or p53 p30 p52) (or p49 p48 p2) (or (not p39) (not p14) p5) (or p6 (not p24) (not p57)) (or (not p9) p3 p56) (or (not p41) (not p51) p54) (or p51 p32 (not p57)) (or (not p32) (not p23) (not p10)) (or p45 p46 (not p35)) (or (not p8) (not p10) p53) (or (not p28) p54 (not p10)) (or (not p1) p30 p56) (or (not p54) p45 p32) (or (not p23) p31 (not p42)) (or (not p9) (not p4) (not p44)) (or (not p25) p35 (not p24)) (or (not p49) p53 (not p15)) (or (not p46) (not p35) (not p30)) (or p21 p15 p51) (or p0 (not p45) (not p58)) (or p17 p37 (not p15)) (or p27 p4 p20) (or p54 p2 p34) (or p32 p49 (not p4)) (or (not p26) (not p20) (not p43)) (or (not p12) p52 (not p33)) (or (not p55) (not p55) (not p27)) (or p4 p34 p27) (or (not p13) (not p4) p30) (or p11 (not p27) p49) (or p1 (not p16) (not p31)) (or (not p33) (not p54) (not p6)) (or p56 p40 p22) (or (not p33) p11 (not p30)) (or p5 (not p9) p41) (or (not p20) (not p14) p56) (or p38 (not p3) (not p30)) (or (not p54) (not p58) (not p20)) (or (not p17) (not p33) p48) (or (not p2) p3 p21) (or (not p26) p7 (not p48)) (or p24 (not p20) (not p23)) (or (not p27) (not p4) (not p54)) (or (not p50) (not p7) (not p30)) (or p32 p9 (not p19)) (or (not p3) p15 (not p38)) (or p35 (not p12) (not p28)) (or p41 (not p36) (not p23)) (or p53 (not p3) (not p11)) (or p5 (not p29) (not p56)) (or (not p41) (not p21) p24) (or (not p32) p35 (not p38)) (or p37 (not p12) p13) (or p4 p2 p36) (or (not p5) (not p8) (not p26)) (or p54 (not p22) (not p38)) (or p1 p36 (not p25)) (or (not p49) (not p55) p1) (or (not p43) p40 (not p50)) (or p32 (not p36) p18) (or (not p38) p18 (not p55)) (or (not p24) (not p39) (not p40)) (or (not p52) (not p15) (not p43)) (or (not p27) (not p54) p5) (or p41 (not p56) p51) (or (not p26) (not p44) (not p16)) (or (not p11) (not p24) (not p13)) (or (not p8) p36 p28) (or (not p44) p35 p23) (or (not p14) (not p5) p25) (or p29 p22 p18) (or p4 p4 p58) (or (not p13) (not p13) p47) (or (not p41) p51 (not p20)) (or p47 p38 (not p31)) (or (not p47) (not p23) (not p22)) (or p19 (not p9) (not p50)) (or p1 p22 (not p23)) (or (not p22) (not p50) (not p3)) (or p7 (not p34) p38) (or p45 (not p3) (not p19)) (or (not p13) (not p36) p24) (or (not p30) (not p1) p45) (or (not p31) (not p8) p53) (or p13 (not p41) p19) (or p43 (not p29) p56) (or (not p29) p27 p42) (or (not p53) p54 p17) (or (not p11) (not p54) (not p31)) (or (not p10) (not p42) (not p14)) (or p39 (not p13) p1) (or (not p6) (not p36) p11) (or (not p22) (not p27) (not p15)) (or (not p10) p28 p46) (or (not p18) p35 (not p3)) (or p44 p44 p23) (or p3 (not p49) p30) (or (not p43) (not p59) (not p14)) (or (not p55) (not p11) p52) (or p26 (not p13) (not p36)) (or (not p44) (not p52) p33) (or p54 (not p28) (not p44)) (or (not p39) (not p14) (not p31)) (or (not p4) p15 (not p13)) (or (not p25) p18 (not p47)) (or p16 (not p56) (not p21)) (or p17 p26 (not p3)) (or p54 (not p17) p50) (or (not p19) p20 p6) (or (not p49) (not p12) (not p33)) (or p30 p50 (not p23)) (or (not p48) p4 p2) (or (not p42) (not p31) (not p31)) (or p5 p35 (not p15)) (or p28 p26 p0))
)
(check-sat)
(get-model)
